271 272 269 270 268 267 296 295 294 293 291 292 273 274 275 290 289 288 276 277 278 279 282 281 280 287 286 285 284 283 334 335 336 337 338 339 333 332 331 330 340 341 343 344 345 346 364 363 362 361 360 359 358 348 347 350 349 357 355 354 353 352 351 415 416 414 413 417 419 418 410 411 412 356 402 401 403 400 399 397 398 370 369 368 367 365 342 366 329 328 327 326 325 324 323 322 373 372 371 396 395 394 393 391 392 390 389 388 387 408 407 406 405 404 409 384 383 385 386 382 425 424 423 422 421 420 426 427 428 429 431 430 432 433 434 435 436 437 438 454 455 456 457 458 2 3 4 1 0 5 573 572 6 7 8 9 10 11 14 15 16 17 18 19 20 568 569 570 474 473 472 471 470 469 468 571 467 466 465 464 496 497 498 519 518 520 495 494 524 525 493 492 491 490 526 523 521 522 517 514 515 516 509 510 511 513 512 527 528 529 530 531 489 488 534 533 532 231 230 229 228 227 189 190 192 191 226 225 222 221 220 218 219 193 194 195 196 197 184 183 185 186 188 187 178 182 179 181 180 169 171 170 172 173 174 175 177 176 540 538 539 537 536 535 487 486 485 484 483 481 482 475 476 480 479 477 478 548 545 546 547 544 543 541 542 107 108 109 110 111 112 113 114 115 116 106 105 104 103 98 99 100 102 101 551 550 559 558 560 561 562 549 564 563 565 566 567 29 28 27 26 25 24 21 13 12 23 22 31 30 32 33 34 35 36 37 38 40 41 39 42 43 44 47 48 49 54 53 52 50 51 84 86 85 92 91 46 45 555 556 557 552 553 554 97 96 95 94 93 89 90 87 79 80 81 82 83 55 56 57 58 59 60 61 63 62 78 88 77 74 75 76 64 65 66 67 68 69 70 71 72 73 123 122 120 119 118 121 117 124 125 126 127 128 129 130 131 132 133 134 135 136 137 138 139 140 141 151 150 149 152 148 147 142 143 144 145 146 153 157 158 159 156 155 160 161 162 168 163 167 166 164 154 165 203 204 202 201 200 199 198 205 206 207 208 209 210 211 212 213 214 215 216 217 223 224 232 233 234 235 236 237 238 239 240 301 302 508 507 506 505 504 503 502 501 500 499 461 462 463 460 459 452 453 450 449 448 447 446 442 441 440 439 443 444 445 381 380 379 378 377 376 375 374 315 314 316 313 312 451 311 310 309 308 307 303 304 306 305 318 317 319 320 321 297 298 299 258 259 256 257 300 241 242 243 244 245 246 247 248 249 250 251 252 254 253 255 260 261 262 263 264 265 266